cases/matpower/case5_npg.m
ipopt
[warn | PowerModels]: the voltage setpoint on generator 4 does not match the value at bus 4
[warn | PowerModels]: the voltage setpoint on generator 1 does not match the value at bus 1
[warn | PowerModels]: the voltage setpoint on generator 5 does not match the value at bus 10
[warn | PowerModels]: the voltage setpoint on generator 2 does not match the value at bus 1
[warn | PowerModels]: the voltage setpoint on generator 3 does not match the value at bus 3
[info | PowerModels]: removing 1 cost terms from generator 5: [-1000.0, 0.0]

******************************************************************************
This program contains Ipopt, a library for large-scale nonlinear optimization.
 Ipopt is released as open source code under the Eclipse Public License (EPL).
         For more information visit http://projects.coin-or.org/Ipopt
******************************************************************************

This is Ipopt version 3.13.2, running with linear solver mumps.
NOTE: Other linear solvers might be more efficient (see Ipopt documentation).

Number of nonzeros in equality constraint Jacobian...:      179
Number of nonzeros in inequality constraint Jacobian.:       52
Number of nonzeros in Lagrangian Hessian.............:      312

Total number of variables............................:       48
                     variables with only lower bounds:        0
                variables with lower and upper bounds:       43
                     variables with only upper bounds:        0
Total number of equality constraints.................:       39
Total number of inequality constraints...............:       26
        inequality constraints with only lower bounds:        6
   inequality constraints with lower and upper bounds:        0
        inequality constraints with only upper bounds:       20

iter    objective    inf_pr   inf_du lg(mu)  ||d||  lg(rg) alpha_du alpha_pr  ls
   0  1.2663035e+02 3.99e+00 3.56e+01  -1.0 0.00e+00    -  0.00e+00 0.00e+00   0
   1  4.8831105e+02 3.88e+00 3.75e+01  -1.0 7.47e+00    -  6.59e-03 2.66e-02h  1
   2  6.7029055e+01 3.82e+00 3.68e+01  -1.0 1.41e+01    -  1.25e-02 1.67e-02f  1
   3 -3.8173930e+02 3.72e+00 3.59e+01  -1.0 1.25e+01    -  6.91e-02 2.61e-02f  1
   4 -1.7241514e+03 3.47e+00 3.35e+01  -1.0 1.41e+01    -  5.78e-02 6.57e-02f  1
   5 -7.7538462e+03 2.01e+00 1.94e+01  -1.0 1.58e+01    -  4.10e-01 4.23e-01f  1
   6 -7.6881584e+03 1.90e+00 1.83e+01  -1.0 1.57e+01    -  2.57e-01 5.43e-02h  1
   7 -7.1687195e+03 1.56e+00 1.51e+01  -1.0 1.00e+01    -  2.66e-02 1.75e-01h  1
   8 -7.1614116e+03 1.56e+00 6.58e+01  -1.0 8.30e+00    -  5.05e-02 2.34e-03h  1
   9 -4.2251268e+03 1.21e+00 2.78e+02  -1.0 7.81e+00    -  7.87e-04 2.22e-01h  1
iter    objective    inf_pr   inf_du lg(mu)  ||d||  lg(rg) alpha_du alpha_pr  ls
  10  1.4131895e+02 7.89e-01 2.59e+02  -1.0 6.65e+00    -  1.08e-01 3.50e-01h  1
  11  3.5924507e+03 5.87e-01 1.88e+02  -1.0 4.62e+00    -  1.33e-01 4.72e-01h  1
  12  7.0336610e+03 5.21e-01 6.29e+01  -1.0 2.65e+00    -  5.83e-01 7.86e-01h  1
  13  7.7087835e+03 1.88e-01 1.24e+01  -1.0 1.30e+00    -  1.00e+00 6.21e-01h  1
  14  8.1731686e+03 2.08e-02 3.90e+00  -1.0 9.51e-01    -  8.71e-01 1.00e+00h  1
  15  8.1914754e+03 8.57e-03 1.77e+01  -1.0 3.93e-01    -  1.00e+00 7.71e-01h  1
  16  8.2119836e+03 1.16e-04 1.66e+00  -1.0 1.95e-01    -  1.00e+00 1.00e+00h  1
  17  8.2146120e+03 2.27e-05 9.71e-02  -1.0 7.16e-02    -  1.00e+00 1.00e+00h  1
  18  8.1938037e+03 2.71e-03 1.68e+00  -2.5 1.37e-01    -  9.04e-01 8.37e-01f  1
  19  8.1904924e+03 5.92e-03 1.02e-01  -2.5 1.89e-01    -  1.00e+00 1.00e+00h  1
iter    objective    inf_pr   inf_du lg(mu)  ||d||  lg(rg) alpha_du alpha_pr  ls
  20  8.1906003e+03 6.31e-04 1.22e-02  -2.5 5.43e-02    -  1.00e+00 1.00e+00h  1
  21  8.1901600e+03 2.56e-04 6.38e-01  -3.8 4.74e-02    -  1.00e+00 7.61e-01h  1
  22  8.1901126e+03 3.45e-06 1.53e-03  -3.8 2.94e-02    -  1.00e+00 1.00e+00h  1
  23  8.1901166e+03 2.87e-08 5.58e-05  -3.8 1.99e-03    -  1.00e+00 1.00e+00h  1
  24  8.1900923e+03 2.67e-07 2.79e-03  -5.7 3.97e-03    -  1.00e+00 9.83e-01h  1
  25  8.1900924e+03 2.30e-10 8.47e-07  -5.7 1.81e-04    -  1.00e+00 1.00e+00f  1
  26  8.1900921e+03 2.27e-11 1.76e-08  -8.6 5.17e-05    -  1.00e+00 1.00e+00h  1
  27  8.1900921e+03 2.04e-14 1.94e-12  -9.0 6.23e-08    -  1.00e+00 1.00e+00h  1

Number of Iterations....: 27

                                   (scaled)                 (unscaled)
Objective...............:   2.0475230246242859e+02    8.1900920984971435e+03
Dual infeasibility......:   1.9382024420323214e-12    7.7528097681292858e-11
Constraint violation....:   2.0428103653102880e-14    2.0428103653102880e-14
Complementarity.........:   9.0909999440689152e-10    3.6363999776275657e-08
Overall NLP error.......:   9.0909999440689152e-10    3.6363999776275657e-08


Number of objective function evaluations             = 28
Number of objective gradient evaluations             = 28
Number of equality constraint evaluations            = 28
Number of inequality constraint evaluations          = 28
Number of equality constraint Jacobian evaluations   = 28
Number of inequality constraint Jacobian evaluations = 28
Number of Lagrangian Hessian evaluations             = 27
Total CPU secs in IPOPT (w/o function evaluations)   =      1.281
Total CPU secs in NLP function evaluations           =      2.315

EXIT: Optimal Solution Found.
Time to Solution........:4.31478214263916
